certificates/rado_a5_c288_N57.cnf
c Rad2 upper bound instance: x1 + 5*x2 - x3 = 288, interval [1,57]
p cnf 57 638
1 4 57 0
-1 -4 -57 0
2 5 57 0
-2 -5 -57 0
3 6 57 0
-3 -6 -57 0
4 7 57 0
-4 -7 -57 0
5 8 57 0
-5 -8 -57 0
1 9 56 0
-1 -9 -56 0
6 9 57 0
-6 -9 -57 0
2 10 56 0
-2 -10 -56 0
7 10 57 0
-7 -10 -57 0
3 11 56 0
-3 -11 -56 0
8 11 57 0
-8 -11 -57 0
4 12 56 0
-4 -12 -56 0
9 12 57 0
-9 -12 -57 0
5 13 56 0
-5 -13 -56 0
10 13 57 0
-10 -13 -57 0
1 14 55 0
-1 -14 -55 0
6 14 56 0
-6 -14 -56 0
11 14 57 0
-11 -14 -57 0
2 15 55 0
-2 -15 -55 0
7 15 56 0
-7 -15 -56 0
12 15 57 0
-12 -15 -57 0
3 16 55 0
-3 -16 -55 0
8 16 56 0
-8 -16 -56 0
13 16 57 0
-13 -16 -57 0
4 17 55 0
-4 -17 -55 0
9 17 56 0
-9 -17 -56 0
14 17 57 0
-14 -17 -57 0
5 18 55 0
-5 -18 -55 0
10 18 56 0
-10 -18 -56 0
15 18 57 0
-15 -18 -57 0
1 19 54 0
-1 -19 -54 0
6 19 55 0
-6 -19 -55 0
11 19 56 0
-11 -19 -56 0
16 19 57 0
-16 -19 -57 0
2 20 54 0
-2 -20 -54 0
7 20 55 0
-7 -20 -55 0
12 20 56 0
-12 -20 -56 0
17 20 57 0
-17 -20 -57 0
3 21 54 0
-3 -21 -54 0
8 21 55 0
-8 -21 -55 0
13 21 56 0
-13 -21 -56 0
18 21 57 0
-18 -21 -57 0
4 22 54 0
-4 -22 -54 0
9 22 55 0
-9 -22 -55 0
14 22 56 0
-14 -22 -56 0
19 22 57 0
-19 -22 -57 0
5 23 54 0
-5 -23 -54 0
10 23 55 0
-10 -23 -55 0
15 23 56 0
-15 -23 -56 0
20 23 57 0
-20 -23 -57 0
1 24 53 0
-1 -24 -53 0
6 24 54 0
-6 -24 -54 0
11 24 55 0
-11 -24 -55 0
16 24 56 0
-16 -24 -56 0
21 24 57 0
-21 -24 -57 0
2 25 53 0
-2 -25 -53 0
7 25 54 0
-7 -25 -54 0
12 25 55 0
-12 -25 -55 0
17 25 56 0
-17 -25 -56 0
22 25 57 0
-22 -25 -57 0
3 26 53 0
-3 -26 -53 0
8 26 54 0
-8 -26 -54 0
13 26 55 0
-13 -26 -55 0
18 26 56 0
-18 -26 -56 0
23 26 57 0
-23 -26 -57 0
4 27 53 0
-4 -27 -53 0
9 27 54 0
-9 -27 -54 0
14 27 55 0
-14 -27 -55 0
19 27 56 0
-19 -27 -56 0
24 27 57 0
-24 -27 -57 0
5 28 53 0
-5 -28 -53 0
10 28 54 0
-10 -28 -54 0
15 28 55 0
-15 -28 -55 0
20 28 56 0
-20 -28 -56 0
25 28 57 0
-25 -28 -57 0
1 29 52 0
-1 -29 -52 0
6 29 53 0
-6 -29 -53 0
11 29 54 0
-11 -29 -54 0
16 29 55 0
-16 -29 -55 0
21 29 56 0
-21 -29 -56 0
26 29 57 0
-26 -29 -57 0
2 30 52 0
-2 -30 -52 0
7 30 53 0
-7 -30 -53 0
12 30 54 0
-12 -30 -54 0
17 30 55 0
-17 -30 -55 0
22 30 56 0
-22 -30 -56 0
27 30 57 0
-27 -30 -57 0
3 31 52 0
-3 -31 -52 0
8 31 53 0
-8 -31 -53 0
13 31 54 0
-13 -31 -54 0
18 31 55 0
-18 -31 -55 0
23 31 56 0
-23 -31 -56 0
28 31 57 0
-28 -31 -57 0
4 32 52 0
-4 -32 -52 0
9 32 53 0
-9 -32 -53 0
14 32 54 0
-14 -32 -54 0
19 32 55 0
-19 -32 -55 0
24 32 56 0
-24 -32 -56 0
29 32 57 0
-29 -32 -57 0
5 33 52 0
-5 -33 -52 0
10 33 53 0
-10 -33 -53 0
15 33 54 0
-15 -33 -54 0
20 33 55 0
-20 -33 -55 0
25 33 56 0
-25 -33 -56 0
30 33 57 0
-30 -33 -57 0
1 34 51 0
-1 -34 -51 0
6 34 52 0
-6 -34 -52 0
11 34 53 0
-11 -34 -53 0
16 34 54 0
-16 -34 -54 0
21 34 55 0
-21 -34 -55 0
26 34 56 0
-26 -34 -56 0
31 34 57 0
-31 -34 -57 0
2 35 51 0
-2 -35 -51 0
7 35 52 0
-7 -35 -52 0
12 35 53 0
-12 -35 -53 0
17 35 54 0
-17 -35 -54 0
22 35 55 0
-22 -35 -55 0
27 35 56 0
-27 -35 -56 0
32 35 57 0
-32 -35 -57 0
3 36 51 0
-3 -36 -51 0
8 36 52 0
-8 -36 -52 0
13 36 53 0
-13 -36 -53 0
18 36 54 0
-18 -36 -54 0
23 36 55 0
-23 -36 -55 0
28 36 56 0
-28 -36 -56 0
33 36 57 0
-33 -36 -57 0
4 37 51 0
-4 -37 -51 0
9 37 52 0
-9 -37 -52 0
14 37 53 0
-14 -37 -53 0
19 37 54 0
-19 -37 -54 0
24 37 55 0
-24 -37 -55 0
29 37 56 0
-29 -37 -56 0
34 37 57 0
-34 -37 -57 0
5 38 51 0
-5 -38 -51 0
10 38 52 0
-10 -38 -52 0
15 38 53 0
-15 -38 -53 0
20 38 54 0
-20 -38 -54 0
25 38 55 0
-25 -38 -55 0
30 38 56 0
-30 -38 -56 0
35 38 57 0
-35 -38 -57 0
1 39 50 0
-1 -39 -50 0
6 39 51 0
-6 -39 -51 0
11 39 52 0
-11 -39 -52 0
16 39 53 0
-16 -39 -53 0
21 39 54 0
-21 -39 -54 0
26 39 55 0
-26 -39 -55 0
31 39 56 0
-31 -39 -56 0
36 39 57 0
-36 -39 -57 0
2 40 50 0
-2 -40 -50 0
7 40 51 0
-7 -40 -51 0
12 40 52 0
-12 -40 -52 0
17 40 53 0
-17 -40 -53 0
22 40 54 0
-22 -40 -54 0
27 40 55 0
-27 -40 -55 0
32 40 56 0
-32 -40 -56 0
37 40 57 0
-37 -40 -57 0
3 41 50 0
-3 -41 -50 0
8 41 51 0
-8 -41 -51 0
13 41 52 0
-13 -41 -52 0
18 41 53 0
-18 -41 -53 0
23 41 54 0
-23 -41 -54 0
28 41 55 0
-28 -41 -55 0
33 41 56 0
-33 -41 -56 0
38 41 57 0
-38 -41 -57 0
4 42 50 0
-4 -42 -50 0
9 42 51 0
-9 -42 -51 0
14 42 52 0
-14 -42 -52 0
19 42 53 0
-19 -42 -53 0
24 42 54 0
-24 -42 -54 0
29 42 55 0
-29 -42 -55 0
34 42 56 0
-34 -42 -56 0
39 42 57 0
-39 -42 -57 0
5 43 50 0
-5 -43 -50 0
10 43 51 0
-10 -43 -51 0
15 43 52 0
-15 -43 -52 0
20 43 53 0
-20 -43 -53 0
25 43 54 0
-25 -43 -54 0
30 43 55 0
-30 -43 -55 0
35 43 56 0
-35 -43 -56 0
40 43 57 0
-40 -43 -57 0
1 44 49 0
-1 -44 -49 0
6 44 50 0
-6 -44 -50 0
11 44 51 0
-11 -44 -51 0
16 44 52 0
-16 -44 -52 0
21 44 53 0
-21 -44 -53 0
26 44 54 0
-26 -44 -54 0
31 44 55 0
-31 -44 -55 0
36 44 56 0
-36 -44 -56 0
41 44 57 0
-41 -44 -57 0
2 45 49 0
-2 -45 -49 0
7 45 50 0
-7 -45 -50 0
12 45 51 0
-12 -45 -51 0
17 45 52 0
-17 -45 -52 0
22 45 53 0
-22 -45 -53 0
27 45 54 0
-27 -45 -54 0
32 45 55 0
-32 -45 -55 0
37 45 56 0
-37 -45 -56 0
42 45 57 0
-42 -45 -57 0
3 46 49 0
-3 -46 -49 0
8 46 50 0
-8 -46 -50 0
13 46 51 0
-13 -46 -51 0
18 46 52 0
-18 -46 -52 0
23 46 53 0
-23 -46 -53 0
28 46 54 0
-28 -46 -54 0
33 46 55 0
-33 -46 -55 0
38 46 56 0
-38 -46 -56 0
43 46 57 0
-43 -46 -57 0
4 47 49 0
-4 -47 -49 0
9 47 50 0
-9 -47 -50 0
14 47 51 0
-14 -47 -51 0
19 47 52 0
-19 -47 -52 0
24 47 53 0
-24 -47 -53 0
29 47 54 0
-29 -47 -54 0
34 47 55 0
-34 -47 -55 0
39 47 56 0
-39 -47 -56 0
44 47 57 0
-44 -47 -57 0
5 48 49 0
-5 -48 -49 0
10 48 50 0
-10 -48 -50 0
15 48 51 0
-15 -48 -51 0
20 48 52 0
-20 -48 -52 0
25 48 53 0
-25 -48 -53 0
30 48 54 0
-30 -48 -54 0
35 48 55 0
-35 -48 -55 0
40 48 56 0
-40 -48 -56 0
45 48 57 0
-45 -48 -57 0
1 48 49 0
-1 -48 -49 0
6 49 0
-6 -49 0
11 49 50 0
-11 -49 -50 0
16 49 51 0
-16 -49 -51 0
21 49 52 0
-21 -49 -52 0
26 49 53 0
-26 -49 -53 0
31 49 54 0
-31 -49 -54 0
36 49 55 0
-36 -49 -55 0
41 49 56 0
-41 -49 -56 0
46 49 57 0
-46 -49 -57 0
2 48 50 0
-2 -48 -50 0
7 49 50 0
-7 -49 -50 0
12 50 0
-12 -50 0
17 50 51 0
-17 -50 -51 0
22 50 52 0
-22 -50 -52 0
27 50 53 0
-27 -50 -53 0
32 50 54 0
-32 -50 -54 0
37 50 55 0
-37 -50 -55 0
42 50 56 0
-42 -50 -56 0
47 50 57 0
-47 -50 -57 0
3 48 51 0
-3 -48 -51 0
8 49 51 0
-8 -49 -51 0
13 50 51 0
-13 -50 -51 0
18 51 0
-18 -51 0
23 51 52 0
-23 -51 -52 0
28 51 53 0
-28 -51 -53 0
33 51 54 0
-33 -51 -54 0
38 51 55 0
-38 -51 -55 0
43 51 56 0
-43 -51 -56 0
48 51 57 0
-48 -51 -57 0
4 48 52 0
-4 -48 -52 0
9 49 52 0
-9 -49 -52 0
14 50 52 0
-14 -50 -52 0
19 51 52 0
-19 -51 -52 0
24 52 0
-24 -52 0
29 52 53 0
-29 -52 -53 0
34 52 54 0
-34 -52 -54 0
39 52 55 0
-39 -52 -55 0
44 52 56 0
-44 -52 -56 0
49 52 57 0
-49 -52 -57 0
5 48 53 0
-5 -48 -53 0
10 49 53 0
-10 -49 -53 0
15 50 53 0
-15 -50 -53 0
20 51 53 0
-20 -51 -53 0
25 52 53 0
-25 -52 -53 0
30 53 0
-30 -53 0
35 53 54 0
-35 -53 -54 0
40 53 55 0
-40 -53 -55 0
45 53 56 0
-45 -53 -56 0
50 53 57 0
-50 -53 -57 0
1 47 54 0
-1 -47 -54 0
6 48 54 0
-6 -48 -54 0
11 49 54 0
-11 -49 -54 0
16 50 54 0
-16 -50 -54 0
21 51 54 0
-21 -51 -54 0
26 52 54 0
-26 -52 -54 0
31 53 54 0
-31 -53 -54 0
36 54 0
-36 -54 0
41 54 55 0
-41 -54 -55 0
46 54 56 0
-46 -54 -56 0
51 54 57 0
-51 -54 -57 0
2 47 55 0
-2 -47 -55 0
7 48 55 0
-7 -48 -55 0
12 49 55 0
-12 -49 -55 0
17 50 55 0
-17 -50 -55 0
22 51 55 0
-22 -51 -55 0
27 52 55 0
-27 -52 -55 0
32 53 55 0
-32 -53 -55 0
37 54 55 0
-37 -54 -55 0
42 55 0
-42 -55 0
47 55 56 0
-47 -55 -56 0
52 55 57 0
-52 -55 -57 0
3 47 56 0
-3 -47 -56 0
8 48 56 0
-8 -48 -56 0
13 49 56 0
-13 -49 -56 0
18 50 56 0
-18 -50 -56 0
23 51 56 0
-23 -51 -56 0
28 52 56 0
-28 -52 -56 0
33 53 56 0
-33 -53 -56 0
38 54 56 0
-38 -54 -56 0
43 55 56 0
-43 -55 -56 0
48 56 0
-48 -56 0
53 56 57 0
-53 -56 -57 0
4 47 57 0
-4 -47 -57 0
9 48 57 0
-9 -48 -57 0
14 49 57 0
-14 -49 -57 0
19 50 57 0
-19 -50 -57 0
24 51 57 0
-24 -51 -57 0
29 52 57 0
-29 -52 -57 0
34 53 57 0
-34 -53 -57 0
39 54 57 0
-39 -54 -57 0
44 55 57 0
-44 -55 -57 0
49 56 57 0
-49 -56 -57 0
54 57 0
-54 -57 0
