certificates/rado_a5_c288_N57.drat
-57 0
54 0
-36 0
33 0
39 0
-15 0
-51 0
-21 0
12 0
18 0
48 0
24 0
3 0
-30 0
-50 0
-6 0
-56 0
-42 0
-52 0
22 0
27 0
38 0
53 0
17 0
0
